2025 02 25 10 42 51-2025 02 25 22 28 30
2025 02 26 10 43 34-2025 02 26 22 27 27
2025 02 27 10 44 16-2025 02 27 22 26 23
2025 02 28 10 44 58-2025 02 28 22 25 18
2025 03 01 10 45 40-2025 03 01 22 24 13
2025 03 02 10 46 21-2025 03 02 22 23 07
2025 03 03 10 47 03-2025 03 03 22 22 00
2025 03 04 10 47 44-2025 03 04 22 20 52
2025 03 05 10 48 25-2025 03 05 22 19 44
2025 03 06 10 49 05-2025 03 06 22 18 35
2025 03 07 10 49 46-2025 03 07 22 17 26
2025 03 08 10 50 26-2025 03 08 22 16 16
2025 03 09 10 51 06-2025 03 09 22 15 06
2025 03 10 10 51 46-2025 03 10 22 13 55
2025 03 11 10 52 25-2025 03 11 22 12 43
2025 03 12 10 53 05-2025 03 12 22 11 32
2025 03 13 10 53 44-2025 03 13 22 10 19
2025 03 14 10 54 24-2025 03 14 22 09 07
2025 03 15 10 55 03-2025 03 15 22 07 54
2025 03 16 10 55 42-2025 03 16 22 06 41
2025 03 17 10 56 21-2025 03 17 22 05 27
2025 03 18 10 57 00-2025 03 18 22 04 13
2025 03 19 10 57 39-2025 03 19 22 02 59
2025 03 20 10 58 17-2025 03 20 22 01 45
2025 03 21 10 58 56-2025 03 21 22 00 30
2025 03 22 10 59 35-2025 03 22 21 59 16
2025 03 23 11 00 14-2025 03 23 21 58 01
2025 03 24 11 00 52-2025 03 24 21 56 46
2025 03 25 11 01 31-2025 03 25 21 55 32
2025 03 26 11 02 10-2025 03 26 21 54 17
2025 03 27 11 02 48-2025 03 27 21 53 02
2025 03 28 11 03 27-2025 03 28 21 51 47
2025 03 29 11 04 06-2025 03 29 21 50 32
2025 03 30 11 04 45-2025 03 30 21 49 17
2025 03 31 11 05 24-2025 03 31 21 48 03
2025 04 01 11 06 03-2025 04 01 21 46 48
2025 04 02 11 06 42-2025 04 02 21 45 34
2025 04 03 11 07 22-2025 04 03 21 44 20
2025 04 04 11 08 01-2025 04 04 21 43 06
2025 04 05 11 08 41-2025 04 05 21 41 52
2025 04 06 11 09 20-2025 04 06 21 40 39
2025 04 07 11 10 00-2025 04 07 21 39 26
2025 04 08 11 10 40-2025 04 08 21 38 13
2025 04 09 11 11 20-2025 04 09 21 37 00
2025 04 10 11 12 00-2025 04 10 21 35 48
2025 04 11 11 12 41-2025 04 11 21 34 37
2025 04 12 11 13 21-2025 04 12 21 33 25
2025 04 13 11 14 02-2025 04 13 21 32 15
2025 04 14 11 14 43-2025 04 14 21 31 05
2025 04 15 11 15 24-2025 04 15 21 29 55
2025 04 16 11 16 05-2025 04 16 21 28 46
2025 04 17 11 16 46-2025 04 17 21 27 37
2025 04 18 11 17 28-2025 04 18 21 26 29
2025 04 19 11 18 10-2025 04 19 21 25 22
2025 04 20 11 18 52-2025 04 20 21 24 15
2025 04 21 11 19 34-2025 04 21 21 23 09
2025 04 22 11 20 16-2025 04 22 21 22 04
2025 04 23 11 20 58-2025 04 23 21 21 00
2025 04 24 11 21 41-2025 04 24 21 19 56
2025 04 25 11 22 24-2025 04 25 21 18 53
2025 04 26 11 23 06-2025 04 26 21 17 51
2025 04 27 11 23 49-2025 04 27 21 16 50
2025 04 28 11 24 33-2025 04 28 21 15 50
2025 04 29 11 25 16-2025 04 29 21 14 51
2025 04 30 11 25 59-2025 04 30 21 13 52
2025 05 01 11 26 43-2025 05 01 21 12 55
2025 05 02 11 27 26-2025 05 02 21 11 59
